59 76 49 40 86 122 36 74 94 50 24 142 125 140
140 125 142 24 50 94 74 36 122 86 40 49 76 59
18 55 78 113 25 73 24 50 94 42 39 1 81 20 51 96 13 46 127 17 6 128 117 121
121 117 128 6 17 127 46 13 96 51 20 81 1 39 42 94 50 24 73 25 113 78 55 18 62
112 36 123 130 44 47 68 42 139 91 32 102 92 125 90
140 90 125 92 102 32 91 139 42 68 47 44 130 123 36 112 110
